Sat 19 May 19:24:46 CEST 2018
CPXPARAM_TimeLimit                               45
CPXPARAM_Threads                                 1
CPXPARAM_MIP_Strategy_CallbackReducedLP          0
Tried aggregator 3 times.
MIP Presolve eliminated 4614 rows and 3489 columns.
MIP Presolve modified 10258 coefficients.
Aggregator did 18788 substitutions.
Reduced MIP has 24836 rows, 17176 columns, and 55114 nonzeros.
Reduced MIP has 15673 binaries, 7 generals, 0 SOSs, and 1664 indicators.
Presolve time = 0.32 sec. (859.48 ticks)
Found incumbent of value 28.000000 after 0.44 sec. (982.02 ticks)
Probing time = 0.19 sec. (139.90 ticks)
Tried aggregator 3 times.
Aggregator did 11622 substitutions.
Reduced MIP has 13214 rows, 5554 columns, and 31870 nonzeros.
Reduced MIP has 4051 binaries, 1503 generals, 0 SOSs, and 1664 indicators.
Presolve time = 0.05 sec. (60.50 ticks)
Probing time = 0.10 sec. (112.77 ticks)
Tried aggregator 1 time.
Reduced MIP has 13214 rows, 5554 columns, and 31870 nonzeros.
Reduced MIP has 4051 binaries, 1503 generals, 0 SOSs, and 1664 indicators.
Presolve time = 0.02 sec. (27.43 ticks)
Probing time = 0.01 sec. (7.50 ticks)
Clique table members: 217780.
MIP emphasis: balance optimality and feasibility.
MIP search method: dynamic search.
Parallel mode: none, using 1 thread.
Root relaxation solution time = 0.14 sec. (143.83 ticks)

        Nodes                                         Cuts/
   Node  Left     Objective  IInf  Best Integer    Best Bound    ItCnt     Gap

*     0+    0                           28.0000        0.0000           100.00%
      0     0        0.0000  2368       28.0000        0.0000     1380  100.00%
      0     0        0.0000   637       28.0000   ZeroHalf: 1     1398  100.00%
      0     0        0.0000   891       28.0000      Cuts: 54     1556  100.00%
      0     0        0.0000  1246       28.0000    Cuts: 2004     1952  100.00%
      0     2        0.0000   925       28.0000        0.0000     1969  100.00%
Elapsed time = 10.83 sec. (13537.19 ticks, tree = 0.01 MB, solutions = 1)
     25    27        0.0000   262       28.0000        0.0000     2837  100.00%
     60    62       24.0000    32       28.0000        0.0000     3100  100.00%
     77    79        0.0000   130       28.0000        0.0000     4698  100.00%
    106   108        7.0000    74       28.0000        0.0000     5335  100.00%
    175   177        7.0000    14       28.0000        0.0000     5490  100.00%
*   200+  138                           20.0000        0.0000           100.00%
*   200+  132                           19.0000        0.0000           100.00%
    210   144       12.0000     4       19.0000        0.0000     5785  100.00%
*   250   167      integral     0       17.0000        0.0000     6139  100.00%
    255   172        3.0000    35       17.0000        0.0000     6536  100.00%
*   260+  168                           16.0000        0.0000           100.00%
    285   195       15.0000   459       16.0000        0.0000     7152  100.00%
    325   235        7.0000   405       16.0000        0.0000     7773  100.00%
*   350+  236                           15.0000        0.0000           100.00%
*   440+  210                           14.0000        0.0000           100.00%
*   450+  189                           13.0000        0.0000           100.00%
    483   165        0.0000    47       13.0000        0.0000    11029  100.00%
Elapsed time = 13.10 sec. (16716.69 ticks, tree = 0.95 MB, solutions = 8)
*   500+  158                           12.0000        0.0000           100.00%
*   590+  211                           11.0000        0.0000           100.00%
    590   213        2.0000   158       11.0000        0.0000    12802  100.00%
*   669   222      integral     0        9.0000        0.0000    14411  100.00%
    702   254        8.0000   409        9.0000        0.0000    15586  100.00%
*   707   213      integral     0        8.0000        0.0000    15615  100.00%
    764   263        4.0000   424        8.0000        0.0000    20438  100.00%
*   843   231      integral     0        7.0000        0.0000    23470  100.00%
    860   239        6.0000    58        7.0000        0.0000    24357  100.00%
*   861   192      integral     0        6.0000        0.0000    24359  100.00%
    900   187    infeasible              6.0000        0.0000    31228  100.00%
    964   151        2.0000   247        6.0000        2.0000    39277   66.67%
   1023   106    infeasible              6.0000        4.0000    47849   33.33%
   1051    86        4.0000   121        6.0000        4.0000    56416   33.33%
   1130    62    infeasible              6.0000        4.0000    63838   33.33%
   1186    44        5.0000   503        6.0000        5.0000    71181   16.67%
Elapsed time = 20.16 sec. (26396.76 ticks, tree = 0.23 MB, solutions = 14)

Clique cuts applied:  2
Implied bound cuts applied:  123
Zero-half cuts applied:  6

Root node processing (before b&c):
  Real time             =   10.82 sec. (13521.12 ticks)
Sequential b&c:
  Real time             =    9.54 sec. (13153.64 ticks)
                          ------------
Total (root+branch&cut) =   20.36 sec. (26674.76 ticks)
   | W
 L | 0 1 2 3 4 5 6 7 
--------------------
 0 | 5 5 5 5 5 5 5 . 
 1 | . 1 1 2 2 3 3 3 
 2 | . 1 1 2 2 3 3 3 
 3 | . 1 1 2 2 3 3 3 
 4 | 4 4 4 4 4 4 4 . 
 5 | 6 6 6 6 6 6 6 . 
 6 | . . . . . . . . 
 7 | . . . . . . . . 
 8 | . . . . . . . . 
 9 | . . . . . . . . 
10 | . . . . . . . . 
11 | . . . . . . . . 
12 | . . . . . . . . 
13 | . . . . . . . . 
14 | . . . . . . . . 
15 | . . . . . . . . 
16 | . . . . . . . . 
17 | . . . . . . . . 
18 | . . . . . . . . 
19 | . . . . . . . . 
20 | . . . . . . . . 
21 | . . . . . . . . 
22 | . . . . . . . . 
23 | . . . . . . . . 
24 | . . . . . . . . 
25 | . . . . . . . . 
26 | . . . . . . . . 
27 | . . . . . . . . 
28 | . . . . . . . . 
29 | . . . . . . . . 

Boxes' corners:      (w,l)
    Box 1 is at 
        top left     (1,1)
        bottom right (2,3)

    Box 2 is at 
        top left     (3,1)
        bottom right (4,3)

    Box 3 is at 
        top left     (5,1)
        bottom right (7,3)

    Box 4 is at 
        top left     (0,4)
        bottom right (6,4)

    Box 5 is at 
        top left     (0,0)
        bottom right (6,0)

    Box 6 is at 
        top left     (0,5)
        bottom right (6,5)

    Roll length used: 6
In 20.66 seconds
